40 58 76 16 51 42 32 72 0 62 17 26 33 41 60 69 7 74 53 75 54 13 2 64 78 8 46 50 44 31 24 23 52 70 59 25 45 65 36 1 27 39 57 79 6 29 9 48 12 56 5 71 10 68 66 30 67 11 20 4 19 55 77 18 3 21 22 47 63 49 38 15 61 73 35 34 28 43 37 14